\ LP format - for model browsing. Use MPS format to capture full model detail.
\ Signature: 0x7df073f0d55481ef
Minimize
  30 x_0 + 40 u_0 + 150 z_0
Subject To
 R0: z_0 = 0
 R1: S = 48
 R2: y_0 - S >= 0
 R3: y_0 - 6000 z_0 - S <= 0
 R4: P_0_0 = 1
 R5: - z_0 + P_0_0 >= 0
 R6: - 0.4 y_0 + x_0 - 6000 P_0_0 >= -6000
 R7: - 0.4 y_0 + x_0 + 6000 P_0_0 <= 6000
 R8: 0.6 y_0 + u_0 - 6000 P_0_0 >= -5960
 R9: 0.5383870010582935 y_0 + u_0 - 6000 P_0_0 >= -5963.446177197427
 R10: 0.4646930394902962 y_0 + u_0 - 6000 P_0_0 >= -5967.875094780828
 R11: 0.3997736913076367 y_0 + u_0 - 6000 P_0_0 >= -5971.933776373067
 R12: 0.3281926944625921 y_0 + u_0 - 6000 P_0_0 >= -5976.551175062835
 R13: 0.2565676864644588 y_0 + u_0 - 6000 P_0_0 >= -5981.313835707025
 R14: 0.1908862815543381 y_0 + u_0 - 6000 P_0_0 >= -5985.811960105923
 R15: 0.1117812291481375 y_0 + u_0 - 6000 P_0_0 >= -5991.422616846176
 R16: 0.0465053915284743 y_0 + u_0 - 6000 P_0_0 >= -5996.272196833173
 R17: 0.0465053915284743 y_0 + u_0 - 6000 P_0_0 >= -6000
Bounds
Binaries
 z_0 P_0_0
End
